
Gurobi 9.5.0 (linux64) logging started Fri Dec 15 10:38:50 2023

Set parameter LogFile to value "/lustre1/scratch/348/vsc34888/JointResearch/05.Models/06.Benchmarking/K.Investments_per_hour/RTS24_mod1_ByStages_nc10/openStarNet_RTS24_mod1_ByStages_nc10.log"
Set parameter Method to value 2
Set parameter MIPFocus to value 1
Set parameter Presolve to value 2
Set parameter RINS to value 100
Set parameter MIPGap to value 0.01
Set parameter Threads to value 36
Set parameter TimeLimit to value 259200
Set parameter IterationLimit to value 760000000
Gurobi Optimizer version 9.5.0 build v9.5.0rc5 (linux64)
Thread count: 36 physical cores, 36 logical processors, using up to 36 threads
Optimize a model with 3908 rows, 2636 columns and 10582 nonzeros
Model fingerprint: 0x3370db28
Variable types: 2615 continuous, 21 integer (21 binary)
Coefficient statistics:
  Matrix range     [1e-03, 7e+03]
  Objective range  [1e+00, 1e+00]
  Bounds range     [5e-05, 2e+00]
  RHS range        [5e-05, 2e+00]
Presolve removed 2328 rows and 1326 columns
Presolve time: 0.02s
Presolved: 1580 rows, 1310 columns, 5694 nonzeros
Variable types: 1289 continuous, 21 integer (21 binary)
Found heuristic solution: objective 87.2676446
Root relaxation presolve removed 4 rows and 4 columns
Root relaxation presolved: 1576 rows, 1306 columns, 5686 nonzeros

Root barrier log...

Ordering time: 0.02s

Barrier statistics:
 AA' NZ     : 2.814e+04
 Factor NZ  : 1.401e+05 (roughly 2 MB of memory)
 Factor Ops : 1.934e+07 (less than 1 second per iteration)
 Threads    : 36

                  Objective                Residual
Iter       Primal          Dual         Primal    Dual     Compl     Time
   0   1.83582061e+06 -1.03257488e+08  1.65e+01 1.50e+03  1.88e+05     0s
   1   4.77906967e+05 -4.82043421e+07  4.32e+00 1.29e-10  4.49e+04     0s
   2   5.68520327e+04 -2.37898736e+07  5.51e-01 5.00e-09  9.38e+03     0s
   3   8.18745329e+03 -3.17162039e+06  4.42e-02 5.41e-11  9.45e+02     0s
   4   4.63419625e+03 -1.10601905e+05  1.09e-03 3.27e-11  3.14e+01     0s
   5   2.49153175e+03 -1.81423160e+04  4.35e-13 2.18e-11  5.58e+00     0s
   6   6.29428489e+02 -4.01359337e+03  3.65e-13 3.64e-12  1.26e+00     0s
   7   2.00747785e+02 -1.11052289e+03  1.73e-13 7.28e-12  3.55e-01     0s
   8   1.40125903e+02 -2.60716331e+02  7.77e-14 3.64e-12  1.08e-01     0s
   9   8.57962984e+01 -8.13814240e+01  1.90e-13 3.64e-12  4.52e-02     0s
  10   5.86720093e+01  4.33017557e+00  4.55e-13 3.64e-12  1.47e-02     0s
  11   5.05349952e+01  2.96362952e+01  2.92e-13 3.64e-12  5.65e-03     0s
  12   4.38959374e+01  3.69892724e+01  4.79e-13 1.46e-11  1.87e-03     0s
  13   4.12097524e+01  3.83492889e+01  1.27e-12 3.64e-12  7.74e-04     0s
  14   4.05808064e+01  3.93819068e+01  8.60e-13 3.64e-12  3.24e-04     0s
  15   4.03572329e+01  3.98681944e+01  2.09e-12 1.46e-11  1.32e-04     0s
  16   4.01448616e+01  3.99853363e+01  4.29e-12 1.46e-11  4.32e-05     0s
  17   4.00848146e+01  4.00164908e+01  8.30e-12 3.64e-12  1.85e-05     0s
  18   4.00555677e+01  4.00513231e+01  9.71e-12 1.46e-11  1.15e-06     0s
  19   4.00534310e+01  4.00528291e+01  6.80e-12 1.46e-11  1.63e-07     0s
  20   4.00531242e+01  4.00531124e+01  4.36e-12 7.28e-12  3.19e-09     0s
  21   4.00531223e+01  4.00531223e+01  5.24e-12 3.64e-12  1.02e-11     0s

Barrier solved model in 21 iterations and 0.35 seconds (0.06 work units)
Optimal objective 4.00531223e+01


Root relaxation: objective 4.005312e+01, 188 iterations, 0.23 seconds (0.04 work units)

    Nodes    |    Current Node    |     Objective Bounds      |     Work
 Expl Unexpl |  Obj  Depth IntInf | Incumbent    BestBd   Gap | It/Node Time

     0     0   40.05312    0   14   87.26764   40.05312  54.1%     -    0s
     0     0   40.94507    0   11   87.26764   40.94507  53.1%     -    0s
H    0     0                      84.1060771   40.94507  51.3%     -    0s
H    0     0                      75.5586818   40.95601  45.8%     -    0s
     0     0   41.54944    0   13   75.55868   41.54944  45.0%     -    0s
     0     0   42.09340    0   11   75.55868   42.09340  44.3%     -    0s
H    0     0                      68.2526392   42.09340  38.3%     -    0s
     0     0   42.09340    0   10   68.25264   42.09340  38.3%     -    0s
     0     0   42.09340    0    9   68.25264   42.09340  38.3%     -    0s
     0     0   42.79535    0   11   68.25264   42.79535  37.3%     -    0s
     0     0   43.62640    0   10   68.25264   43.62640  36.1%     -    0s
     0     0   43.67668    0   10   68.25264   43.67668  36.0%     -    0s
H    0     0                      67.1530889   43.87138  34.7%     -    0s
     0     0   43.87138    0   10   67.15309   43.87138  34.7%     -    0s
H    0     0                      59.9903006   44.43568  25.9%     -    0s
     0     0   44.43568    0   13   59.99030   44.43568  25.9%     -    0s
     0     0   44.45133    0   10   59.99030   44.45133  25.9%     -    0s
     0     0   44.67774    0    9   59.99030   44.67774  25.5%     -    0s
H    0     0                      58.5621871   44.67774  23.7%     -    1s
     0     2   44.67774    0    9   58.56219   44.67774  23.7%     -    1s
H    6     8                      58.3703003   44.67774  23.5%  67.8    1s
   900   238   56.13107    9   10   58.37030   47.32539  18.9%  44.8    5s

Cutting planes:
  Gomory: 1
  Implied bound: 11
  MIR: 72
  Relax-and-lift: 10

Explored 2553 nodes (87162 simplex iterations) in 6.48 seconds (7.05 work units)
Thread count was 36 (of 36 available processors)

Solution count 8: 58.3703 58.5622 59.9903 ... 87.2676

Optimal solution found (tolerance 1.00e-02)
Best objective 5.837030032586e+01, best bound 5.837030032586e+01, gap 0.0000%

Gurobi 9.5.0 (linux64) logging started Fri Dec 15 10:38:57 2023

Set parameter LogFile to value "/lustre1/scratch/348/vsc34888/JointResearch/05.Models/06.Benchmarking/K.Investments_per_hour/RTS24_mod1_ByStages_nc10/openStarNet_RTS24_mod1_ByStages_nc10.log"
Set parameter Method to value 2
Set parameter MIPFocus to value 1
Set parameter Presolve to value 2
Set parameter RINS to value 100
Set parameter MIPGap to value 0.01
Set parameter Threads to value 36
Set parameter TimeLimit to value 259200
Set parameter IterationLimit to value 760000000
No parameters matching 'relax_integrality' found
Gurobi Optimizer version 9.5.0 build v9.5.0rc5 (linux64)
Thread count: 36 physical cores, 36 logical processors, using up to 36 threads
Optimize a model with 3908 rows, 2615 columns and 9637 nonzeros
Model fingerprint: 0x18a0cbe3
Coefficient statistics:
  Matrix range     [1e-03, 7e+03]
  Objective range  [1e+00, 1e+00]
  Bounds range     [5e-05, 2e+00]
  RHS range        [5e-05, 2e+01]
Presolve removed 3268 rows and 1477 columns
Presolve time: 0.01s
Presolved: 640 rows, 1158 columns, 2751 nonzeros

Ordering time: 0.00s

Barrier statistics:
 AA' NZ     : 1.396e+03
 Factor NZ  : 4.980e+03 (roughly 1 MB of memory)
 Factor Ops : 5.892e+04 (less than 1 second per iteration)
 Threads    : 1

                  Objective                Residual
Iter       Primal          Dual         Primal    Dual     Compl     Time
   0   2.50412147e+06 -4.83681731e+07  1.40e+01 4.65e+03  3.82e+05     0s
   1   1.55739028e+05 -3.88512854e+07  8.61e-01 1.71e-10  3.92e+04     0s
   2   4.64418056e+04 -1.29552004e+07  2.33e-01 2.82e-10  9.49e+03     0s
   3   1.98000371e+04 -3.05902527e+06  1.83e-02 1.46e-10  1.68e+03     0s
   4   1.44958804e+04 -1.23289349e+05  1.06e-03 9.81e-11  7.18e+01     0s
   5   4.17844687e+03 -2.42726767e+04  8.80e-06 2.60e-09  1.47e+01     0s
   6   7.96611413e+02 -6.54896283e+03  3.72e-07 7.19e-10  3.80e+00     0s
   7   2.81510201e+02 -9.42835879e+02  1.90e-09 9.35e-11  6.33e-01     0s
   8   1.99171057e+02 -4.24553547e+02  8.19e-10 3.89e-11  3.23e-01     0s
   9   1.33568721e+02 -1.65274760e+02  2.99e-10 2.91e-11  1.55e-01     0s
  10   7.97701779e+01  6.85707029e+00  5.24e-11 7.28e-12  3.77e-02     0s
  11   6.47116681e+01  4.18971662e+01  1.16e-11 3.64e-12  1.18e-02     0s
  12   6.00532609e+01  5.39734297e+01  2.42e-12 2.91e-11  3.14e-03     0s
  13   5.88960693e+01  5.71265429e+01  3.18e-12 5.82e-11  9.15e-04     0s
  14   5.84182498e+01  5.80910984e+01  2.85e-12 7.28e-12  1.69e-04     0s
  15   5.83818677e+01  5.82893387e+01  1.17e-12 2.91e-11  4.78e-05     0s
  16   5.83712325e+01  5.83527743e+01  2.70e-12 7.28e-12  9.54e-06     0s
  17   5.83704445e+01  5.83692901e+01  1.06e-12 2.91e-11  5.97e-07     0s
  18   5.83703273e+01  5.83702546e+01  2.37e-12 7.28e-12  3.76e-08     0s
  19   5.83703004e+01  5.83703002e+01  8.33e-12 7.28e-12  8.36e-11     0s
  20   5.83703003e+01  5.83703003e+01  7.11e-13 5.82e-11  1.21e-16     0s

Barrier solved model in 20 iterations and 0.02 seconds (0.01 work units)
Optimal objective 5.83703003e+01

Crossover log...

     127 DPushes remaining with DInf 0.0000000e+00                 0s
       0 DPushes remaining with DInf 0.0000000e+00                 0s

      37 PPushes remaining with PInf 0.0000000e+00                 0s
       0 PPushes remaining with PInf 0.0000000e+00                 0s

  Push phase complete: Pinf 0.0000000e+00, Dinf 4.6366494e-13      0s

Iteration    Objective       Primal Inf.    Dual Inf.      Time
      41    5.8370300e+01   0.000000e+00   0.000000e+00      0s

Use crossover to convert LP symmetric solution to basic solution...
Crossover log...

       0 DPushes remaining with DInf 0.0000000e+00                 0s

      20 PPushes remaining with PInf 0.0000000e+00                 0s
       0 PPushes remaining with PInf 0.0000000e+00                 0s

  Push phase complete: Pinf 0.0000000e+00, Dinf 5.5260575e-13      0s

Iteration    Objective       Primal Inf.    Dual Inf.      Time
      65    5.8370300e+01   0.000000e+00   0.000000e+00      0s

Solved in 65 iterations and 0.02 seconds (0.01 work units)
Optimal objective  5.837030033e+01

Gurobi 10.0.0 (win64) logging started Sat Dec 16 15:32:05 2023

Set parameter LogFile to value "C:\Users\ealvarezq\Documents\GitHub\Comillas\Models\JointResearch\05. Models\06.Benchmarking\L.Cont_Investments_per_hour\RTS24_mod1_ByStages_nc10/openStarNet_RTS24_mod1_ByStages_nc10.log"
Set parameter Method to value 2
Set parameter MIPFocus to value 1
Set parameter Presolve to value 2
Set parameter RINS to value 100
Set parameter MIPGap to value 0.01
Set parameter Threads to value 9
Set parameter TimeLimit to value 259200
Set parameter IterationLimit to value 760000000
Gurobi Optimizer version 10.0.0 build v10.0.0rc2 (win64)

CPU model: Intel(R) Core(TM) i7-8700 CPU @ 3.20GHz, instruction set [SSE2|AVX|AVX2]
Thread count: 6 physical cores, 12 logical processors, using up to 9 threads

Optimize a model with 3554 rows, 2410 columns and 9652 nonzeros
Model fingerprint: 0xb6371586
Variable types: 2389 continuous, 21 integer (21 binary)
Coefficient statistics:
  Matrix range     [7e-03, 7e+03]
  Objective range  [1e+00, 1e+00]
  Bounds range     [1e-04, 2e+00]
  RHS range        [1e-04, 2e+00]
Presolve removed 2115 rows and 1210 columns
Presolve time: 0.01s
Presolved: 1439 rows, 1200 columns, 5188 nonzeros
Variable types: 1179 continuous, 21 integer (21 binary)
Found heuristic solution: objective 89.8600065
Root relaxation presolve removed 4 rows and 4 columns
Root relaxation presolved: 1435 rows, 1196 columns, 5180 nonzeros

Root barrier log...

Ordering time: 0.02s

Barrier statistics:
 AA' NZ     : 2.391e+04
 Factor NZ  : 1.242e+05 (roughly 2 MB of memory)
 Factor Ops : 1.668e+07 (less than 1 second per iteration)
 Threads    : 9

                  Objective                Residual
Iter       Primal          Dual         Primal    Dual     Compl     Time
   0   2.65722283e+06 -1.25890762e+08  2.17e+01 4.04e+03  3.25e+05     0s
   1   7.56638907e+05 -7.16406533e+07  6.15e+00 1.45e+02  8.74e+04     0s
   2   2.59721457e+04 -2.94913613e+07  2.32e-01 3.58e-10  1.05e+04     0s
   3   6.14931038e+03 -3.93148915e+06  1.02e-02 1.96e-10  1.19e+03     0s
   4   4.92409471e+03 -7.23315730e+04  4.11e-13 4.37e-11  2.29e+01     0s
   5   1.90295656e+03 -1.96031567e+04  9.33e-14 2.55e-11  6.37e+00     0s
   6   4.21816070e+02 -5.76682344e+03  1.42e-13 5.91e-12  1.83e+00     0s
   7   1.74530477e+02 -1.26285132e+03  1.00e-13 6.14e-12  4.26e-01     0s
   8   9.80216126e+01 -1.44515826e+02  4.17e-14 3.00e-11  7.18e-02     0s
   9   6.46700201e+01 -4.02005384e+01  8.33e-14 9.04e-12  3.11e-02     0s
  10   5.23925101e+01  1.12117456e+01  8.17e-14 2.98e-12  1.22e-02     0s
  11   4.70146915e+01  3.19519442e+01  1.24e-13 1.03e-11  4.46e-03     0s
  12   4.32869494e+01  3.58354627e+01  3.56e-13 5.41e-12  2.21e-03     0s
  13   4.13566442e+01  3.76257126e+01  3.83e-13 4.42e-12  1.11e-03     0s
  14   4.06464527e+01  3.94358292e+01  1.90e-12 6.73e-12  3.59e-04     0s
  15   4.01828997e+01  3.97968768e+01  3.75e-12 7.38e-12  1.14e-04     0s
  16   4.00482718e+01  3.98382156e+01  3.85e-12 6.08e-12  6.22e-05     0s
  17   3.99735184e+01  3.98453429e+01  6.65e-12 8.17e-12  3.80e-05     0s
  18   3.99192481e+01  3.98732702e+01  1.17e-11 2.86e-12  1.36e-05     0s
  19   3.99047678e+01  3.98892408e+01  2.79e-11 7.64e-12  4.60e-06     0s
  20   3.98972408e+01  3.98927197e+01  1.05e-10 5.34e-12  1.34e-06     0s
  21   3.98961139e+01  3.98951177e+01  2.57e-10 1.59e-11  2.95e-07     0s
  22   3.98953831e+01  3.98953306e+01  3.67e-11 2.62e-12  1.56e-08     0s
  23   3.98953788e+01  3.98953727e+01  9.61e-11 4.67e-12  1.81e-09     0s
  24   3.98953787e+01  3.98953787e+01  1.16e-10 1.66e-11  1.73e-11     0s

Barrier solved model in 24 iterations and 0.11 seconds (0.06 work units)
Optimal objective 3.98953787e+01


Root relaxation: objective 3.989538e+01, 151 iterations, 0.09 seconds (0.04 work units)

    Nodes    |    Current Node    |     Objective Bounds      |     Work
 Expl Unexpl |  Obj  Depth IntInf | Incumbent    BestBd   Gap | It/Node Time

     0     0   39.89538    0   12   89.86001   39.89538  55.6%     -    0s
H    0     0                      80.3239538   40.55828  49.5%     -    0s
     0     0   40.55828    0   10   80.32395   40.55828  49.5%     -    0s
H    0     0                      76.8592685   40.55828  47.2%     -    0s
H    0     0                      71.6225899   40.73229  43.1%     -    0s
     0     0   40.94594    0    8   71.62259   40.94594  42.8%     -    0s
     0     0   40.94594    0    9   71.62259   40.94594  42.8%     -    0s
     0     0   41.49979    0   11   71.62259   41.49979  42.1%     -    0s
H    0     0                      71.5961113   41.49979  42.0%     -    0s
     0     0   42.07538    0   10   71.59611   42.07538  41.2%     -    0s
H    0     0                      66.9816788   42.07538  37.2%     -    0s
     0     0   42.74368    0    8   66.98168   42.74368  36.2%     -    0s
     0     0   42.74368    0    9   66.98168   42.74368  36.2%     -    0s
H    0     0                      65.7698748   43.04300  34.6%     -    0s
     0     0   43.07255    0   10   65.76987   43.07255  34.5%     -    0s
H    0     0                      59.1061187   43.07255  27.1%     -    0s
     0     2   43.07255    0   10   59.10612   43.07255  27.1%     -    0s
H  139   103                      59.0162813   43.14615  26.9%  51.4    1s
H  320   147                      58.8530498   44.37718  24.6%  45.0    2s
  1350   271     cutoff   11        58.85305   54.44595  7.49%  36.7    5s

Cutting planes:
  Gomory: 5
  MIR: 69
  Relax-and-lift: 10

Explored 2514 nodes (77786 simplex iterations) in 6.74 seconds (6.65 work units)
Thread count was 9 (of 12 available processors)

Solution count 10: 58.853 59.0163 59.1061 ... 89.86

Optimal solution found (tolerance 1.00e-02)
Best objective 5.885304977366e+01, best bound 5.885304977366e+01, gap 0.0000%

Gurobi 10.0.0 (win64) logging started Sat Dec 16 15:32:12 2023

Set parameter LogFile to value "C:\Users\ealvarezq\Documents\GitHub\Comillas\Models\JointResearch\05. Models\06.Benchmarking\L.Cont_Investments_per_hour\RTS24_mod1_ByStages_nc10/openStarNet_RTS24_mod1_ByStages_nc10.log"
Set parameter Method to value 2
Set parameter MIPFocus to value 1
Set parameter Presolve to value 2
Set parameter RINS to value 100
Set parameter MIPGap to value 0.01
Set parameter Threads to value 9
Set parameter TimeLimit to value 259200
Set parameter IterationLimit to value 760000000
No parameters matching 'relax_integrality' found
Gurobi Optimizer version 10.0.0 build v10.0.0rc2 (win64)

CPU model: Intel(R) Core(TM) i7-8700 CPU @ 3.20GHz, instruction set [SSE2|AVX|AVX2]
Thread count: 6 physical cores, 12 logical processors, using up to 9 threads

Optimize a model with 3554 rows, 2389 columns and 8791 nonzeros
Model fingerprint: 0x766cb502
Coefficient statistics:
  Matrix range     [7e-03, 7e+03]
  Objective range  [1e+00, 1e+00]
  Bounds range     [1e-04, 2e+00]
  RHS range        [1e-04, 3e+01]
Presolve removed 3004 rows and 1385 columns
Presolve time: 0.01s
Presolved: 550 rows, 1024 columns, 2484 nonzeros

Ordering time: 0.00s

Barrier statistics:
 AA' NZ     : 1.344e+03
 Factor NZ  : 4.868e+03 (roughly 1 MB of memory)
 Factor Ops : 6.406e+04 (less than 1 second per iteration)
 Threads    : 1

                  Objective                Residual
Iter       Primal          Dual         Primal    Dual     Compl     Time
   0   2.09958672e+06 -4.63185439e+07  1.02e+01 1.73e+04  3.02e+05     0s
   1   1.31817793e+05 -3.48068229e+07  6.49e-01 1.75e-10  3.44e+04     0s
   2   3.79656665e+04 -1.25016466e+07  1.38e-01 1.89e-10  8.82e+03     0s
   3   1.95570456e+04 -1.24526430e+06  7.10e-05 1.24e-10  7.20e+02     0s
   4   1.13796243e+04 -6.84196869e+04  2.80e-12 5.82e-11  4.54e+01     0s
   5   3.33315346e+03 -1.08780600e+04  2.38e-12 1.82e-11  8.09e+00     0s
   6   4.61045624e+02 -3.07459925e+03  4.05e-13 3.33e-11  2.01e+00     0s
   7   2.13625669e+02 -6.98476446e+02  1.15e-13 9.62e-12  5.19e-01     0s
   8   1.23143962e+02 -6.39159541e+01  3.15e-14 2.18e-11  1.07e-01     0s
   9   9.22231833e+01  2.92271512e+01  3.44e-13 1.58e-11  3.59e-02     0s
  10   7.33168706e+01  4.77178931e+01  2.15e-13 5.29e-12  1.46e-02     0s
  11   6.38612457e+01  5.37505079e+01  1.04e-13 1.89e-11  5.76e-03     0s
  12   6.08266751e+01  5.67988869e+01  2.42e-13 9.56e-12  2.29e-03     0s
  13   5.92580878e+01  5.84952432e+01  6.31e-13 8.23e-12  4.34e-04     0s
  14   5.88652239e+01  5.88252690e+01  4.29e-12 1.77e-11  2.28e-05     0s
  15   5.88533570e+01  5.88521520e+01  6.39e-12 9.75e-12  6.86e-07     0s
  16   5.88530916e+01  5.88530411e+01  1.15e-11 1.22e-11  2.88e-08     0s
  17   5.88530498e+01  5.88530498e+01  2.45e-12 3.17e-11  6.53e-13     0s

Barrier solved model in 17 iterations and 0.02 seconds (0.01 work units)
Optimal objective 5.88530498e+01

Crossover log...

     114 DPushes remaining with DInf 0.0000000e+00                 0s
       0 DPushes remaining with DInf 0.0000000e+00                 0s

      29 PPushes remaining with PInf 0.0000000e+00                 0s
       0 PPushes remaining with PInf 0.0000000e+00                 0s

  Push phase complete: Pinf 0.0000000e+00, Dinf 4.8438554e-13      0s

Iteration    Objective       Primal Inf.    Dual Inf.      Time
      33    5.8853050e+01   0.000000e+00   0.000000e+00      0s

Use crossover to convert LP symmetric solution to basic solution...
Crossover log...

       0 DPushes remaining with DInf 0.0000000e+00                 0s

      24 PPushes remaining with PInf 0.0000000e+00                 0s
       0 PPushes remaining with PInf 0.0000000e+00                 0s

  Push phase complete: Pinf 0.0000000e+00, Dinf 4.1309794e-13      0s

Iteration    Objective       Primal Inf.    Dual Inf.      Time
      61    5.8853050e+01   0.000000e+00   0.000000e+00      0s

Solved in 61 iterations and 0.02 seconds (0.01 work units)
Optimal objective  5.885304977e+01

Gurobi 9.5.0 (linux64) logging started Sat Dec 16 21:03:54 2023

Set parameter LogFile to value "/lustre1/scratch/348/vsc34888/JointResearch/05.Models/06.Benchmarking/L.Cont_Investments_per_hour/RTS24_mod1_ByStages_nc10/openStarNet_RTS24_mod1_ByStages_nc10.log"
Set parameter Method to value 2
Set parameter MIPFocus to value 1
Set parameter Presolve to value 2
Set parameter RINS to value 100
Set parameter MIPGap to value 0.01
Set parameter Threads to value 36
Set parameter TimeLimit to value 259200
Set parameter IterationLimit to value 760000000
Gurobi Optimizer version 9.5.0 build v9.5.0rc5 (linux64)
Thread count: 36 physical cores, 36 logical processors, using up to 36 threads
Optimize a model with 3553 rows, 2410 columns and 9651 nonzeros
Model fingerprint: 0x11d57133
Variable types: 2389 continuous, 21 integer (21 binary)
Coefficient statistics:
  Matrix range     [7e-03, 7e+03]
  Objective range  [1e+00, 1e+00]
  Bounds range     [1e-04, 2e+00]
  RHS range        [1e-04, 2e+00]
Presolve removed 2114 rows and 1210 columns
Presolve time: 0.03s
Presolved: 1439 rows, 1200 columns, 5188 nonzeros
Variable types: 1179 continuous, 21 integer (21 binary)
Found heuristic solution: objective 89.8600065
Root relaxation presolve removed 4 rows and 4 columns
Root relaxation presolved: 1435 rows, 1196 columns, 5180 nonzeros

Root barrier log...

Ordering time: 0.01s

Barrier statistics:
 AA' NZ     : 2.391e+04
 Factor NZ  : 1.172e+05 (roughly 2 MB of memory)
 Factor Ops : 1.458e+07 (less than 1 second per iteration)
 Threads    : 36

                  Objective                Residual
Iter       Primal          Dual         Primal    Dual     Compl     Time
   0   2.63245879e+06 -1.33138883e+08  2.16e+01 3.99e+03  3.27e+05     0s
   1   7.44491645e+05 -7.20636972e+07  6.10e+00 4.47e-10  8.69e+04     0s
   2   2.35011776e+04 -2.95394232e+07  2.16e-01 1.85e-10  1.04e+04     0s
   3   6.23507191e+03 -3.35544804e+06  1.05e-02 2.45e-10  1.02e+03     0s
   4   4.88267198e+03 -8.50074426e+04  1.95e-13 7.28e-11  2.66e+01     0s
   5   2.11676211e+03 -1.85774803e+04  1.39e-13 1.87e-11  6.13e+00     0s
   6   5.45129123e+02 -5.13259478e+03  1.39e-13 1.14e-11  1.68e+00     0s
   7   2.34408294e+02 -1.73978315e+03  1.19e-13 4.11e-12  5.85e-01     0s
   8   1.24334745e+02 -4.65392520e+02  1.65e-13 1.46e-11  1.75e-01     0s
   9   7.98775801e+01 -1.51405676e+02  6.48e-14 7.28e-12  6.85e-02     0s
  10   5.57014477e+01 -4.28053803e+01  2.10e-13 7.28e-12  2.92e-02     0s
  11   4.75239421e+01 -9.57453827e-01  1.40e-13 1.46e-11  1.44e-02     0s
  12   4.35068143e+01  2.86004672e+01  2.95e-13 7.28e-12  4.42e-03     0s
  13   4.07865405e+01  3.74792642e+01  3.12e-13 7.28e-12  9.80e-04     0s
  14   4.02072729e+01  3.92214280e+01  2.89e-12 7.28e-12  2.92e-04     0s
  15   3.99939482e+01  3.96552766e+01  2.54e-12 7.28e-12  1.00e-04     0s
  16   3.99313550e+01  3.97867249e+01  6.50e-12 1.46e-11  4.28e-05     0s
  17   3.99138715e+01  3.98519333e+01  4.65e-12 1.46e-11  1.83e-05     0s
  18   3.99008471e+01  3.98867238e+01  1.13e-11 1.46e-11  4.18e-06     0s
  19   3.98966343e+01  3.98916038e+01  1.14e-10 7.28e-12  1.49e-06     0s
  20   3.98954632e+01  3.98930019e+01  1.93e-10 1.46e-11  7.29e-07     0s
  21   3.98953955e+01  3.98948927e+01  1.41e-10 7.28e-12  1.49e-07     0s
  22   3.98953794e+01  3.98953655e+01  1.18e-10 1.46e-11  4.10e-09     0s
  23   3.98953788e+01  3.98953782e+01  1.98e-10 1.46e-11  1.71e-10     0s
  24   3.98953787e+01  3.98953787e+01  1.34e-09 7.28e-12  2.02e-12     0s

Barrier solved model in 24 iterations and 0.34 seconds (0.06 work units)
Optimal objective 3.98953787e+01


Root relaxation: objective 3.989538e+01, 150 iterations, 0.21 seconds (0.04 work units)

    Nodes    |    Current Node    |     Objective Bounds      |     Work
 Expl Unexpl |  Obj  Depth IntInf | Incumbent    BestBd   Gap | It/Node Time

     0     0   39.89538    0   12   89.86001   39.89538  55.6%     -    0s
H    0     0                      80.3239538   40.50852  49.6%     -    0s
     0     0   40.51309    0   11   80.32395   40.51309  49.6%     -    0s
H    0     0                      76.8592685   40.51309  47.3%     -    0s
     0     0   40.55062    0   11   76.85927   40.55062  47.2%     -    0s
H    0     0                      71.6225899   40.55062  43.4%     -    0s
     0     0   41.27193    0    8   71.62259   41.27193  42.4%     -    0s
     0     0   41.49968    0    8   71.62259   41.49968  42.1%     -    0s
H    0     0                      69.0205161   41.49968  39.9%     -    0s
     0     0   42.07543    0    7   69.02052   42.07543  39.0%     -    0s
     0     0   42.66231    0    8   69.02052   42.66231  38.2%     -    0s
     0     0   42.66231    0    9   69.02052   42.66231  38.2%     -    0s
     0     0   42.79835    0   11   69.02052   42.79835  38.0%     -    0s
     0     0   43.07255    0   12   69.02052   43.07255  37.6%     -    0s
     0     0   43.07255    0   14   69.02052   43.07255  37.6%     -    0s
     0     0   43.25503    0   14   69.02052   43.25503  37.3%     -    0s
     0     0   43.67984    0    9   69.02052   43.67984  36.7%     -    0s
H    0     0                      59.6435504   43.67984  26.8%     -    0s
     0     2   43.67984    0    9   59.64355   43.67984  26.8%     -    0s
H   28    32                      59.0288037   43.67984  26.0%  61.5    0s
H  100   124                      58.8530498   45.23094  23.1%  57.4    1s

Cutting planes:
  Gomory: 4
  Implied bound: 11
  MIR: 68
  Relax-and-lift: 11

Explored 2570 nodes (87355 simplex iterations) in 4.19 seconds (4.33 work units)
Thread count was 36 (of 36 available processors)

Solution count 8: 58.853 59.0288 59.6436 ... 89.86

Optimal solution found (tolerance 1.00e-02)
Best objective 5.885304977366e+01, best bound 5.885304977366e+01, gap 0.0000%

Gurobi 9.5.0 (linux64) logging started Sat Dec 16 21:03:59 2023

Set parameter LogFile to value "/lustre1/scratch/348/vsc34888/JointResearch/05.Models/06.Benchmarking/L.Cont_Investments_per_hour/RTS24_mod1_ByStages_nc10/openStarNet_RTS24_mod1_ByStages_nc10.log"
Set parameter Method to value 2
Set parameter MIPFocus to value 1
Set parameter Presolve to value 2
Set parameter RINS to value 100
Set parameter MIPGap to value 0.01
Set parameter Threads to value 36
Set parameter TimeLimit to value 259200
Set parameter IterationLimit to value 760000000
No parameters matching 'relax_integrality' found
Gurobi Optimizer version 9.5.0 build v9.5.0rc5 (linux64)
Thread count: 36 physical cores, 36 logical processors, using up to 36 threads
Optimize a model with 3553 rows, 2389 columns and 8790 nonzeros
Model fingerprint: 0xf0d339de
Coefficient statistics:
  Matrix range     [7e-03, 7e+03]
  Objective range  [1e+00, 1e+00]
  Bounds range     [1e-04, 2e+00]
  RHS range        [1e-04, 3e+01]
Presolve removed 2943 rows and 1316 columns
Presolve time: 0.00s
Presolved: 610 rows, 1084 columns, 2696 nonzeros

Ordering time: 0.00s

Barrier statistics:
 AA' NZ     : 1.502e+03
 Factor NZ  : 5.360e+03 (roughly 1 MB of memory)
 Factor Ops : 7.655e+04 (less than 1 second per iteration)
 Threads    : 1

                  Objective                Residual
Iter       Primal          Dual         Primal    Dual     Compl     Time
   0   3.80550540e+06 -3.03328844e+07  1.56e+01 1.62e+04  2.72e+05     0s
   1   2.14314640e+05 -2.43300305e+07  8.45e-01 4.32e+02  2.58e+04     0s
   2   4.82074144e+04 -9.00208376e+06  1.83e-01 6.43e+01  6.50e+03     0s
   3   2.34198444e+04 -1.27974807e+06  3.56e-02 1.53e-10  8.10e+02     0s
   4   1.08227982e+04 -1.02827601e+05  5.18e-12 7.32e-11  6.37e+01     0s
   5   3.24278611e+03 -2.29665423e+04  1.95e-11 2.96e-11  1.47e+01     0s
   6   7.27542454e+02 -6.35313742e+03  1.33e-12 5.82e-11  3.97e+00     0s
   7   2.74525628e+02 -1.22872086e+03  1.63e-12 1.46e-11  8.43e-01     0s
   8   1.33750215e+02 -2.15559012e+02  6.02e-13 2.91e-11  1.96e-01     0s
   9   1.02536299e+02 -3.88217881e+01  8.76e-13 2.91e-11  7.92e-02     0s
  10   7.63353807e+01  2.14251530e+01  8.62e-13 2.91e-11  3.08e-02     0s
  11   6.63894557e+01  4.11607146e+01  2.15e-12 1.46e-11  1.41e-02     0s
  12   6.02020327e+01  5.38615417e+01  8.30e-13 7.28e-12  3.55e-03     0s
  13   5.92076330e+01  5.76735962e+01  1.34e-12 1.46e-11  8.60e-04     0s
  14   5.89469815e+01  5.86892088e+01  9.33e-12 1.46e-11  1.44e-04     0s
  15   5.88576790e+01  5.88262452e+01  1.25e-11 2.91e-11  1.76e-05     0s
  16   5.88536281e+01  5.88519531e+01  1.68e-11 7.28e-12  9.39e-07     0s
  17   5.88530706e+01  5.88530435e+01  7.59e-12 5.82e-11  1.52e-08     0s
  18   5.88530498e+01  5.88530498e+01  1.10e-11 2.91e-11  1.52e-11     0s
  19   5.88530498e+01  5.88530498e+01  1.61e-12 2.91e-11  3.86e-17     0s

Barrier solved model in 19 iterations and 0.02 seconds (0.01 work units)
Optimal objective 5.88530498e+01

Crossover log...

     123 DPushes remaining with DInf 0.0000000e+00                 0s
       0 DPushes remaining with DInf 0.0000000e+00                 0s

      32 PPushes remaining with PInf 0.0000000e+00                 0s
       0 PPushes remaining with PInf 0.0000000e+00                 0s

  Push phase complete: Pinf 0.0000000e+00, Dinf 4.6679773e-13      0s

Iteration    Objective       Primal Inf.    Dual Inf.      Time
      43    5.8853050e+01   0.000000e+00   0.000000e+00      0s

Use crossover to convert LP symmetric solution to basic solution...
Crossover log...

       0 DPushes remaining with DInf 0.0000000e+00                 0s

      15 PPushes remaining with PInf 0.0000000e+00                 0s
       0 PPushes remaining with PInf 0.0000000e+00                 0s

  Push phase complete: Pinf 0.0000000e+00, Dinf 1.6040755e-12      0s

Iteration    Objective       Primal Inf.    Dual Inf.      Time
      65    5.8853050e+01   0.000000e+00   0.000000e+00      0s

Solved in 65 iterations and 0.02 seconds (0.01 work units)
Optimal objective  5.885304977e+01

Gurobi 9.5.0 (linux64) logging started Mon Dec 18 16:50:48 2023

Set parameter LogFile to value "/lustre1/scratch/348/vsc34888/JointResearch/05.Models/06.Benchmarking/L.Cont_Investments_per_hour/RTS24_mod1_ByStages_nc10/openStarNet_RTS24_mod1_ByStages_nc10.log"
Set parameter Method to value 2
Set parameter MIPFocus to value 1
Set parameter Presolve to value 2
Set parameter RINS to value 100
Set parameter MIPGap to value 0.01
Set parameter Threads to value 36
Set parameter TimeLimit to value 259200
Set parameter IterationLimit to value 760000000
Gurobi Optimizer version 9.5.0 build v9.5.0rc5 (linux64)
Thread count: 36 physical cores, 36 logical processors, using up to 36 threads
Optimize a model with 3553 rows, 2410 columns and 9651 nonzeros
Model fingerprint: 0xe7a4acc6
Variable types: 2389 continuous, 21 integer (21 binary)
Coefficient statistics:
  Matrix range     [7e-03, 7e+03]
  Objective range  [1e+00, 1e+00]
  Bounds range     [1e-04, 2e+00]
  RHS range        [1e-04, 2e+00]
Presolve removed 2114 rows and 1210 columns
Presolve time: 0.03s
Presolved: 1439 rows, 1200 columns, 5188 nonzeros
Variable types: 1179 continuous, 21 integer (21 binary)
Found heuristic solution: objective 89.8600065
Root relaxation presolve removed 4 rows and 4 columns
Root relaxation presolved: 1435 rows, 1196 columns, 5180 nonzeros

Root barrier log...

Ordering time: 0.02s

Barrier statistics:
 AA' NZ     : 2.391e+04
 Factor NZ  : 1.237e+05 (roughly 2 MB of memory)
 Factor Ops : 1.582e+07 (less than 1 second per iteration)
 Threads    : 36

                  Objective                Residual
Iter       Primal          Dual         Primal    Dual     Compl     Time
   0   5.85909761e+05 -1.36635608e+08  4.83e+00 3.99e+03  1.09e+05     0s
   1   4.44345939e+04 -3.32599688e+07  3.78e-01 1.58e-10  1.27e+04     0s
   2   7.04598326e+03 -2.24059371e+07  1.80e-02 6.27e-11  6.74e+03     0s
   3   5.17404055e+03 -8.37542163e+04  1.13e-13 5.06e-11  2.63e+01     0s
   4   1.74525437e+03 -1.03883014e+04  1.27e-13 1.46e-11  3.59e+00     0s
   5   4.32541976e+02 -2.63780544e+03  6.75e-14 1.46e-11  9.09e-01     0s
   6   1.51438422e+02 -5.48738391e+02  4.97e-14 1.46e-11  2.07e-01     0s
   7   1.01253940e+02 -2.24418881e+02  5.20e-14 7.28e-12  9.65e-02     0s
   8   6.01088057e+01 -2.46315377e+00  9.86e-14 3.64e-12  1.85e-02     0s
   9   5.11179820e+01  2.15662654e+01  1.58e-13 7.28e-12  8.75e-03     0s
  10   4.42533604e+01  3.28183313e+01  3.57e-13 3.64e-12  3.39e-03     0s
  11   4.24714949e+01  3.52730673e+01  2.35e-13 1.46e-11  2.13e-03     0s
  12   4.10615105e+01  3.84781012e+01  6.95e-13 7.28e-12  7.65e-04     0s
  13   4.03967626e+01  3.92290630e+01  7.03e-13 3.64e-12  3.46e-04     0s
  14   4.00249159e+01  3.96469063e+01  1.74e-12 3.64e-12  1.12e-04     0s
  15   3.99296407e+01  3.97735720e+01  4.63e-12 3.64e-12  4.62e-05     0s
  16   3.99065093e+01  3.98428568e+01  1.53e-11 2.91e-11  1.89e-05     0s
  17   3.98998132e+01  3.98822695e+01  1.26e-11 7.28e-12  5.20e-06     0s
  18   3.98956637e+01  3.98941565e+01  1.03e-10 7.28e-12  4.46e-07     0s
  19   3.98953880e+01  3.98952577e+01  2.05e-11 3.64e-12  3.86e-08     0s
  20   3.98953789e+01  3.98953635e+01  1.77e-11 2.91e-11  4.56e-09     0s
  21   3.98953787e+01  3.98953780e+01  1.20e-09 7.28e-12  2.34e-10     0s
  22   3.98953787e+01  3.98953787e+01  3.05e-11 3.64e-12  1.38e-13     0s

Barrier solved model in 22 iterations and 0.31 seconds (0.06 work units)
Optimal objective 3.98953787e+01


Root relaxation: objective 3.989538e+01, 146 iterations, 0.22 seconds (0.03 work units)

    Nodes    |    Current Node    |     Objective Bounds      |     Work
 Expl Unexpl |  Obj  Depth IntInf | Incumbent    BestBd   Gap | It/Node Time

     0     0   39.89538    0   12   89.86001   39.89538  55.6%     -    0s
     0     0   40.50595    0   10   89.86001   40.50595  54.9%     -    0s
H    0     0                      86.5731178   40.50595  53.2%     -    0s
H    0     0                      80.3239538   40.50820  49.6%     -    0s
H    0     0                      76.8592685   40.50820  47.3%     -    0s
H    0     0                      67.8134364   40.55036  40.2%     -    0s
     0     0   40.55036    0   10   67.81344   40.55036  40.2%     -    0s
     0     0   40.94594    0   12   67.81344   40.94594  39.6%     -    0s
H    0     0                      64.9331101   40.94594  36.9%     -    0s
     0     0   41.27200    0    9   64.93311   41.27200  36.4%     -    0s
     0     0   42.07538    0    8   64.93311   42.07538  35.2%     -    0s
     0     0   42.75934    0    7   64.93311   42.75934  34.1%     -    0s
     0     0   42.75934    0    7   64.93311   42.75934  34.1%     -    0s
H    0     0                      63.5812338   42.75934  32.7%     -    0s
     0     0   42.79835    0    9   63.58123   42.79835  32.7%     -    0s
     0     0   42.79835    0    9   63.58123   42.79835  32.7%     -    0s
     0     0   42.79835    0    9   63.58123   42.79835  32.7%     -    0s
     0     0   43.25503    0    9   63.58123   43.25503  32.0%     -    0s
H    0     0                      59.1061187   43.25503  26.8%     -    0s
     0     2   43.25503    0    9   59.10612   43.25503  26.8%     -    0s
H  104   114                      58.8530498   44.13548  25.0%  63.3    1s
   898   244   58.53123   11   10   58.85305   47.12507  19.9%  38.3    5s

Cutting planes:
  Gomory: 4
  MIR: 64
  Relax-and-lift: 10

Explored 2553 nodes (76133 simplex iterations) in 8.05 seconds (7.26 work units)
Thread count was 36 (of 36 available processors)

Solution count 9: 58.853 59.1061 63.5812 ... 89.86

Optimal solution found (tolerance 1.00e-02)
Best objective 5.885304977366e+01, best bound 5.885304977366e+01, gap 0.0000%

Gurobi 9.5.0 (linux64) logging started Mon Dec 18 16:50:56 2023

Set parameter LogFile to value "/lustre1/scratch/348/vsc34888/JointResearch/05.Models/06.Benchmarking/L.Cont_Investments_per_hour/RTS24_mod1_ByStages_nc10/openStarNet_RTS24_mod1_ByStages_nc10.log"
Set parameter Method to value 2
Set parameter MIPFocus to value 1
Set parameter Presolve to value 2
Set parameter RINS to value 100
Set parameter MIPGap to value 0.01
Set parameter Threads to value 36
Set parameter TimeLimit to value 259200
Set parameter IterationLimit to value 760000000
No parameters matching 'relax_integrality' found
Gurobi Optimizer version 9.5.0 build v9.5.0rc5 (linux64)
Thread count: 36 physical cores, 36 logical processors, using up to 36 threads
Optimize a model with 3553 rows, 2389 columns and 8790 nonzeros
Model fingerprint: 0x598f8f58
Coefficient statistics:
  Matrix range     [7e-03, 7e+03]
  Objective range  [1e+00, 1e+00]
  Bounds range     [1e-04, 2e+00]
  RHS range        [1e-04, 3e+01]
Presolve removed 2933 rows and 1315 columns
Presolve time: 0.01s
Presolved: 620 rows, 1094 columns, 2704 nonzeros

Ordering time: 0.00s

Barrier statistics:
 AA' NZ     : 1.345e+03
 Factor NZ  : 5.021e+03 (roughly 1 MB of memory)
 Factor Ops : 6.578e+04 (less than 1 second per iteration)
 Threads    : 1

                  Objective                Residual
Iter       Primal          Dual         Primal    Dual     Compl     Time
   0   1.22436568e+06 -4.76698162e+07  7.14e+00 1.53e+04  2.23e+05     0s
   1   8.63190442e+04 -3.17342956e+07  4.46e-01 1.57e-10  2.75e+04     0s
   2   3.14139851e+04 -7.26360587e+06  6.98e-02 2.45e-10  4.72e+03     0s
   3   1.89100311e+04 -5.98723690e+05  4.39e-04 1.56e-10  3.48e+02     0s
   4   7.01727924e+03 -5.17750925e+04  1.49e-12 5.82e-11  3.30e+01     0s
   5   1.37260297e+03 -4.71756321e+03  8.84e-13 2.91e-11  3.42e+00     0s
   6   3.31545994e+02 -1.49181301e+03  1.90e-13 1.46e-11  1.02e+00     0s
   7   1.84992039e+02 -4.36735168e+02  4.88e-14 7.28e-12  3.49e-01     0s
   8   1.16818751e+02 -1.74416814e+02  2.91e-14 7.28e-12  1.64e-01     0s
   9   8.45791800e+01 -5.69909394e+01  1.94e-13 7.28e-12  7.95e-02     0s
  10   6.73474081e+01  2.51270152e+01  1.83e-13 7.28e-12  2.37e-02     0s
  11   6.19322968e+01  4.59083421e+01  4.95e-14 7.28e-12  9.00e-03     0s
  12   5.98962686e+01  5.59172236e+01  7.42e-14 7.28e-12  2.24e-03     0s
  13   5.92479499e+01  5.79457494e+01  1.56e-13 7.28e-12  7.32e-04     0s
  14   5.89575834e+01  5.85959522e+01  1.67e-12 7.28e-12  2.03e-04     0s
  15   5.88561567e+01  5.88357448e+01  2.43e-12 2.91e-11  1.15e-05     0s
  16   5.88531184e+01  5.88520746e+01  1.97e-12 7.28e-12  5.86e-07     0s
  17   5.88530540e+01  5.88530456e+01  1.71e-11 2.91e-11  4.71e-09     0s
  18   5.88530498e+01  5.88530498e+01  4.19e-12 7.28e-12  5.36e-15     0s

Barrier solved model in 18 iterations and 0.02 seconds (0.01 work units)
Optimal objective 5.88530498e+01

Crossover log...

     113 DPushes remaining with DInf 0.0000000e+00                 0s

      29 PPushes remaining with PInf 0.0000000e+00                 0s
       0 PPushes remaining with PInf 0.0000000e+00                 0s

  Push phase complete: Pinf 0.0000000e+00, Dinf 5.7799837e-13      0s

Iteration    Objective       Primal Inf.    Dual Inf.      Time
      32    5.8853050e+01   0.000000e+00   0.000000e+00      0s

Use crossover to convert LP symmetric solution to basic solution...
Crossover log...

       0 DPushes remaining with DInf 0.0000000e+00                 0s

      13 PPushes remaining with PInf 0.0000000e+00                 0s
       0 PPushes remaining with PInf 0.0000000e+00                 0s

  Push phase complete: Pinf 0.0000000e+00, Dinf 1.2817848e-12      0s

Iteration    Objective       Primal Inf.    Dual Inf.      Time
      51    5.8853050e+01   0.000000e+00   0.000000e+00      0s

Solved in 51 iterations and 0.03 seconds (0.01 work units)
Optimal objective  5.885304977e+01
